<number of tasks>
250

<cycle time>
1000

<order strength>
0.596


<task times>
1 274
2 631
3 453
4 652
5 515
6 640
7 482
8 590
9 459
10 513
11 456
12 579
13 605
14 327
15 282
16 589
17 760
18 471
19 361
20 403
21 779
22 402
23 447
24 503
25 525
26 392
27 277
28 459
29 596
30 595
31 735
32 349
33 706
34 391
35 417
36 434
37 413
38 499
39 428
40 544
41 576
42 570
43 359
44 671
45 607
46 777
47 388
48 527
49 447
50 664
51 164
52 337
53 488
54 245
55 771
56 552
57 474
58 499
59 383
60 424
61 570
62 518
63 266
64 507
65 546
66 459
67 659
68 549
69 375
70 577
71 549
72 409
73 231
74 411
75 463
76 422
77 593
78 459
79 441
80 338
81 355
82 445
83 652
84 555
85 565
86 721
87 598
88 560
89 411
90 345
91 488
92 581
93 696
94 572
95 517
96 506
97 269
98 563
99 331
100 510
101 441
102 583
103 602
104 662
105 624
106 510
107 468
108 486
109 287
110 305
111 359
112 598
113 770
114 476
115 394
116 476
117 463
118 645
119 531
120 414
121 430
122 537
123 554
124 520
125 417
126 386
127 272
128 408
129 362
130 577
131 527
132 504
133 552
134 185
135 617
136 596
137 580
138 403
139 445
140 483
141 366
142 441
143 509
144 432
145 482
146 387
147 374
148 371
149 448
150 507
151 423
152 645
153 567
154 726
155 420
156 382
157 240
158 567
159 526
160 416
161 528
162 447
163 422
164 496
165 524
166 639
167 800
168 718
169 552
170 602
171 366
172 515
173 604
174 470
175 378
176 553
177 646
178 431
179 718
180 536
181 554
182 467
183 455
184 316
185 354
186 425
187 437
188 672
189 530
190 525
191 620
192 451
193 544
194 460
195 586
196 490
197 452
198 533
199 334
200 777
201 464
202 456
203 362
204 631
205 561
206 457
207 386
208 276
209 577
210 312
211 537
212 612
213 526
214 422
215 305
216 491
217 233
218 314
219 410
220 562
221 410
222 618
223 566
224 525
225 338
226 473
227 506
228 495
229 466
230 492
231 418
232 633
233 580
234 521
235 403
236 583
237 526
238 358
239 331
240 606
241 651
242 541
243 696
244 396
245 510
246 522
247 697
248 264
249 553
250 530

<precedence relations>
1,39
2,111
3,56
4,236
5,143
6,23
7,8
7,9
7,10
7,11
7,12
7,13
7,14
7,15
7,16
7,17
8,39
9,111
10,60
11,182
12,23
13,23
14,23
15,155
16,234
17,18
17,19
17,20
17,21
17,22
17,24
17,25
17,26
17,27
18,39
19,39
20,39
21,60
22,60
23,30
23,31
23,32
23,33
23,34
23,35
23,36
24,155
25,126
26,38
26,106
27,28
27,29
27,30
27,37
27,43
28,39
29,39
30,143
31,40
32,39
32,43
32,44
33,86
33,95
33,107
33,110
34,92
35,39
36,39
36,41
36,54
37,234
38,42
38,88
38,96
38,114
38,115
39,45
39,46
39,47
39,48
39,49
40,60
41,60
42,182
43,182
44,50
44,51
44,52
45,56
46,56
47,85
47,99
47,101
48,53
48,56
48,57
48,58
48,59
49,53
49,57
50,56
51,126
52,54
52,55
52,58
53,60
54,60
55,60
56,61
56,62
56,63
56,64
56,65
56,66
56,67
56,68
56,69
56,70
56,71
56,72
56,73
56,74
57,126
58,126
59,74
60,76
60,77
60,78
60,79
60,80
60,81
60,82
60,83
60,84
61,221
62,234
63,89
64,75
64,85
64,86
64,97
65,101
65,104
65,109
66,75
66,97
66,99
67,75
67,86
67,96
67,113
68,107
68,115
69,86
69,91
70,75
70,91
70,92
70,107
70,116
71,75
71,106
71,140
72,96
72,102
72,138
73,75
73,90
73,91
73,95
73,108
73,116
73,117
74,75
74,85
74,86
74,115
74,140
75,111
76,88
76,103
77,128
77,186
77,187
78,98
79,115
79,139
79,140
79,141
80,90
80,104
80,117
81,87
81,89
82,104
82,109
83,87
84,105
84,108
84,109
85,221
86,87
86,112
86,114
86,116
86,124
86,187
87,143
88,126
89,90
89,91
89,92
89,93
89,94
90,155
91,155
92,126
93,126
94,95
94,96
94,97
94,98
94,99
95,111
96,126
97,100
97,101
97,114
97,139
98,115
98,117
98,157
99,102
99,103
100,236
101,236
102,205
103,104
103,105
103,106
103,107
103,108
103,109
103,110
104,111
105,221
106,155
107,205
108,126
109,113
109,115
109,116
109,124
110,112
110,114
110,117
110,146
110,181
111,118
111,119
111,120
111,121
111,122
111,123
111,124
111,125
111,127
111,129
112,221
113,126
114,234
115,181
115,220
115,234
115,248
116,125
117,140
117,144
118,128
119,128
119,138
119,145
119,158
120,139
121,141
122,144
122,145
123,128
123,187
124,221
125,205
126,129
126,130
126,131
126,132
126,133
126,134
126,135
126,136
126,137
128,205
129,205
130,234
131,156
131,158
132,206
134,140
135,143
135,144
136,139
136,140
136,141
137,139
137,140
137,141
138,186
139,143
140,205
141,142
141,143
141,144
141,145
141,146
142,182
143,147
143,148
143,149
143,150
143,151
143,152
143,153
143,154
144,155
145,156
145,187
146,206
146,232
147,157
148,234
149,205
150,220
150,234
151,182
152,157
152,185
153,158
154,181
154,223
155,159
155,160
155,161
155,162
155,163
155,164
155,165
155,166
155,167
155,168
155,169
155,170
155,171
155,172
155,173
155,174
155,175
155,176
155,177
155,178
155,179
155,180
156,182
157,182
158,221
160,187
161,236
162,185
162,235
162,236
163,217
163,230
164,223
165,183
165,186
166,183
166,217
167,184
167,186
167,187
167,217
168,206
168,230
169,184
169,230
170,184
170,231
170,235
172,205
173,206
174,182
174,185
174,205
177,183
178,182
178,186
182,188
182,189
182,190
182,191
182,192
182,193
182,194
182,195
182,196
182,197
182,198
182,199
182,200
182,201
182,202
182,203
182,204
182,206
182,218
183,205
184,234
185,234
186,205
187,205
187,206
188,232
189,249
192,217
192,235
195,220
195,232
196,230
196,231
196,241
198,250
200,219
203,233
204,221
205,207
205,208
205,209
205,210
205,211
205,212
205,213
205,214
205,215
205,216
206,222
207,231
207,232
208,219
208,223
209,232
210,220
210,221
211,230
212,218
212,220
213,223
214,248
215,218
217,232
217,241
218,221
219,222
219,232
220,223
220,249
221,224
221,225
221,226
221,227
221,228
221,229
221,230
221,232
222,231
224,234
225,233
226,241
227,235
227,236
229,233
231,233
232,233
233,236
234,237
234,238
234,239
234,240
234,241
235,248
236,242
236,243
236,244
236,245
236,246
236,247
240,249
243,248
243,250
244,248
244,249
245,248
249,250

<end>
